
List of user-set options:

                                    Name   Value                used
                           compl_inf_tol = 1                     yes
                         constr_viol_tol = 1                     yes
                            dual_inf_tol = 1000                  yes
                           linear_solver = ma97                  yes
                              ma86_small = 1e-30                  no
                                  ma86_u = 0.0001                 no
                              ma97_order = best                  yes
                              ma97_small = 1e-30                 yes
                            ma97_switch1 = at_start              yes
                            ma97_switch2 = od_hd_reuse           yes
                                  ma97_u = 1e-06                 yes
                               ma97_umax = 0.5                   yes
                                max_iter = 1000                  yes
                    max_refinement_steps = 20                    yes
                    min_refinement_steps = 5                     yes
                                 mu_init = 1e-06                 yes
           mu_superlinear_decrease_power = 1.25                  yes
                   nlp_scaling_min_value = 1e-08                 yes
                        option_file_name = Preset_Case:_5_pf.opt  yes
                             output_file = ./tmp/Preset_Case:_5_pf.output  yes
                      print_user_options = yes                   yes
        required_infeasibility_reduction = 1                      no
                                     tol = 1e-08                 yes
                   warm_start_bound_frac = 1e-20                 yes
                   warm_start_bound_push = 1e-20                 yes
                   warm_start_init_point = yes                   yes
              warm_start_mult_bound_push = 1e-20                 yes
                warm_start_mult_init_max = 1e+40                 yes
             warm_start_slack_bound_frac = 1e-20                 yes
             warm_start_slack_bound_push = 1e-20                 yes

******************************************************************************
This program contains Ipopt, a library for large-scale nonlinear optimization.
 Ipopt is released as open source code under the Eclipse Public License (EPL).
         For more information visit http://projects.coin-or.org/Ipopt
******************************************************************************

This is Ipopt version 3.12.10, running with linear solver ma97.

Number of nonzeros in equality constraint Jacobian...:   123422
Number of nonzeros in inequality constraint Jacobian.:      213
Number of nonzeros in Lagrangian Hessian.............:    49047

Total number of variables............................:    31589
                     variables with only lower bounds:    12912
                variables with lower and upper bounds:    15128
                     variables with only upper bounds:        0
Total number of equality constraints.................:    31483
Total number of inequality constraints...............:       25
        inequality constraints with only lower bounds:        4
   inequality constraints with lower and upper bounds:        0
        inequality constraints with only upper bounds:       21

iter    objective    inf_pr   inf_du lg(mu)  ||d||  lg(rg) alpha_du alpha_pr  ls
   0 -6.0687561e+00 4.01e-03 9.77e-08  -6.0 0.00e+00    -  0.00e+00 0.00e+00   0
   1 -6.0687560e+00 3.35e-03 4.36e+01  -6.0 2.44e+03    -  1.94e-01 1.73e-03h  1
   2 -6.0687481e+00 8.46e+00 4.26e+01  -6.0 1.09e+05    -  1.95e-03 5.95e-03f  1
   3 -6.0687590e+00 1.33e+01 2.90e+01  -6.0 3.08e+03    -  2.22e-01 2.39e-01h  1
   4 -6.0687403e+00 1.35e+01 6.43e+01  -6.0 3.24e+03    -  2.78e-01 7.15e-02h  1
   5 -6.0682884e+00 8.59e+00 1.83e+02  -6.0 1.00e+03    -  2.67e-01 1.00e+00H  1
   6 -6.0683004e+00 1.42e-03 6.02e+00  -6.0 5.37e-01  -4.0 1.00e+00 1.00e+00h  1
   7 -6.0682831e+00 2.33e-05 1.20e-01  -6.0 6.61e-01  -4.5 1.00e+00 1.00e+00h  1
   8 -6.0683688e+00 2.55e-01 2.62e+00  -6.0 1.36e+03    -  1.43e-01 8.52e-02h  1
   9 -6.0685719e+00 3.05e+00 3.96e+00  -6.0 6.73e+02    -  5.87e-01 5.89e-01h  1
iter    objective    inf_pr   inf_du lg(mu)  ||d||  lg(rg) alpha_du alpha_pr  ls
  10 -6.0684796e+00 3.57e-01 2.48e+00  -6.0 1.34e+02    -  5.42e-01 1.00e+00h  1
  11 -6.0685303e+00 8.67e-02 7.26e-01  -6.0 6.89e+01    -  1.00e+00 9.89e-01h  1
  12 -6.0685148e+00 1.54e-03 2.55e-03  -6.0 9.30e+00    -  1.00e+00 1.00e+00h  1
  13 -6.0685146e+00 6.20e-07 5.57e-07  -6.0 1.82e-01    -  1.00e+00 1.00e+00h  1
  14 -6.0686260e+00 1.55e+00 3.86e+01  -7.5 9.64e+02    -  4.23e-01 2.90e-01h  1
  15 -6.0686569e+00 2.00e-01 2.54e+01  -7.5 3.58e-01  -5.0 9.93e-01 8.71e-01h  1
  16 -6.0686915e+00 1.14e+00 2.13e+01  -7.5 9.04e+02    -  6.93e-01 2.45e-01h  1
  17 -6.0687688e+00 1.07e+01 2.73e+00  -7.5 7.25e+02    -  6.75e-01 1.00e+00h  1
  18 -6.0687735e+00 6.40e+00 1.70e+00  -7.5 6.08e+02    -  9.23e-02 4.05e-01h  1
  19 -6.0687594e+00 1.76e+00 6.33e-01  -7.5 3.07e+02    -  1.00e+00 1.00e+00h  1
iter    objective    inf_pr   inf_du lg(mu)  ||d||  lg(rg) alpha_du alpha_pr  ls
  20 -6.0687539e+00 9.21e-02 3.52e-02  -7.5 6.82e+01    -  1.00e+00 1.00e+00h  1
  21 -6.0687540e+00 2.83e-02 7.29e-03  -7.5 3.77e+01    -  1.00e+00 1.00e+00h  1
  22 -6.0687540e+00 5.11e-05 1.21e-05  -7.5 1.58e+00    -  1.00e+00 1.00e+00h  1
  23 -6.0687540e+00 7.37e-09 2.34e-09  -7.5 1.92e-02    -  1.00e+00 1.00e+00h  1
  24 -6.0687559e+00 6.90e-02 1.73e-01  -9.0 6.87e+01    -  8.08e-01 8.26e-01h  1
  25 -6.0687561e+00 4.81e-03 8.99e-01  -9.0 1.49e+01    -  8.22e-01 1.00e+00h  1
  26 -6.0687561e+00 4.05e-07 4.32e-08  -9.0 1.32e-01    -  1.00e+00 1.00e+00h  1
  27 -6.0687561e+00 2.80e-10 3.47e-10  -9.0 1.47e-04    -  1.00e+00 1.00e+00h  1

Number of Iterations....: 27

                                   (scaled)                 (unscaled)
Objective...............:  -4.7412156717430056e+00   -6.0687560598310473e+00
Dual infeasibility......:   3.4688870816081733e-10    4.4401754644584621e-10
Constraint violation....:   2.7988767553610572e-10    2.7988767553610572e-10
Complementarity.........:   9.6517044357836139e-10    1.2354181677803026e-09
Overall NLP error.......:   9.6517044357836139e-10    1.2354181677803026e-09


Number of objective function evaluations             = 30
Number of objective gradient evaluations             = 28
Number of equality constraint evaluations            = 30
Number of inequality constraint evaluations          = 30
Number of equality constraint Jacobian evaluations   = 28
Number of inequality constraint Jacobian evaluations = 28
Number of Lagrangian Hessian evaluations             = 27
Total CPU secs in IPOPT (w/o function evaluations)   =     39.616
Total CPU secs in NLP function evaluations           =      0.726

EXIT: Optimal Solution Found.
